c ind 285 284 283 282 281 280 279 278 277 276 275 274 273 272 271 270 269 268 267 266 265 264 263 262 261 260 259 258 257 256 255 254  0
c ind 222 221 220 219 218 217 216 215 214 213 212 211 210 209 208 207 206 205 204 203 202 201 200 199 198 197 196 195 194 193 192 191  0
c ind 159 158 157 156 155 154 153 152 151 150 149 148 147 146 145 144 143 142 141 140 139 138 137 136 135 134 133 132 131 130 129 128  0
c ind 96 95 94 93 92 91 90 89 88 87 86 85 84 83 82 81 80 79 78 77 76 75 74 73 72 71 70 69 68 67 66 65  0
c ind 33 32 31 30 29 28 27 26 25 24 23 22 21 20 19 18 17 16 15 14 13 12 11 10 9 8 7 6 5 4 3 2  0
p cnf 316 345
1 0
-2 0
-3 0
-4 0
-5 0
-6 0
-7 0
-8 0
-9 0
-10 0
-11 0
-12 0
-13 0
-14 0
-15 0
-16 0
-17 0
-18 0
-19 0
-20 0
-21 0
-22 0
-23 0
-24 0
-25 0
-26 0
-27 0
-28 0
-29 0
-30 0
-31 0
-32 0
-33 0
34 0
35 0
36 0
37 0
38 0
39 0
40 0
41 0
42 0
43 0
44 0
45 0
46 0
47 0
48 0
49 0
50 0
51 0
52 0
53 0
54 0
55 0
56 0
57 0
58 0
59 0
60 0
61 0
62 0
63 0
64 0
-127 0
-128 0
-129 0
-130 0
-131 0
-132 0
-133 0
-134 0
-135 0
-136 0
-137 0
-138 0
-139 0
-140 0
-141 0
-142 0
-143 0
-144 0
-145 0
-146 0
-147 0
-148 0
-149 0
-150 0
-151 0
-152 0
-153 0
-154 0
-155 0
-156 0
-157 0
-158 0
-159 0
160 0
161 0
162 0
163 0
164 0
165 0
166 0
167 0
168 0
169 0
170 0
171 0
172 0
173 0
174 0
175 0
176 0
177 0
178 0
179 0
180 0
181 0
182 0
183 0
184 0
185 0
186 0
187 0
188 0
189 0
190 0
-191 0
-192 0
-193 0
-194 0
-195 0
-196 0
-197 0
-198 0
-199 0
-200 0
-201 0
-202 0
-203 0
-204 0
-205 0
-206 0
-207 0
-208 0
-209 0
-210 0
-211 0
-212 0
-213 0
-214 0
-215 0
-216 0
-217 0
-218 0
-219 0
-220 0
-221 0
-222 0
223 0
224 0
225 0
226 0
227 0
228 0
229 0
230 0
231 0
232 0
233 0
234 0
235 0
236 0
237 0
238 0
239 0
240 0
241 0
242 0
243 0
244 0
245 0
246 0
247 0
248 0
249 0
250 0
251 0
252 0
253 0
-254 0
-255 0
-256 0
-257 0
-258 0
-259 0
-260 0
-261 0
-262 0
-263 0
-264 0
-265 0
-266 0
-267 0
-268 0
-269 0
-270 0
-271 0
-272 0
-273 0
-274 0
-275 0
-276 0
-277 0
-278 0
-279 0
-280 0
-281 0
-282 0
-283 0
-284 0
-285 0
286 0
287 0
288 0
289 0
290 0
291 0
292 0
293 0
294 0
295 0
296 0
297 0
298 0
299 0
300 0
301 0
302 0
303 0
304 0
305 0
306 0
307 0
308 0
309 0
310 0
311 0
312 0
313 0
314 0
315 0
316 0
-65 -97 0
65 66 97 0
-66 -97 0
-67 -98 0
67 -97 98 0
-68 -99 0
68 -98 99 0
-69 -100 0
69 -99 100 0
-70 -101 0
70 -100 101 0
-71 -102 0
71 -101 102 0
-72 -103 0
72 -102 103 0
-73 -104 0
73 -103 104 0
-74 -105 0
74 -104 105 0
-75 -106 0
75 -105 106 0
-76 -107 0
76 -106 107 0
-77 -108 0
77 -107 108 0
-78 -109 0
78 -108 109 0
-79 -110 0
79 -109 110 0
-80 -111 0
80 -110 111 0
-81 -112 0
81 -111 112 0
-82 -113 0
82 -112 113 0
-83 -114 0
83 -113 114 0
-84 -115 0
84 -114 115 0
-85 -116 0
85 -115 116 0
-86 -117 0
86 -116 117 0
-87 -118 0
87 -117 118 0
-88 -119 0
88 -118 119 0
-89 -120 0
89 -119 120 0
-90 -121 0
90 -120 121 0
-91 -122 0
91 -121 122 0
-92 -123 0
92 -122 123 0
-93 -124 0
93 -123 124 0
-94 -125 0
94 -124 125 0
-95 -126 0
95 -125 126 0
96 -126 0
97 -98 0
98 -99 0
99 -100 0
100 -101 0
101 -102 0
102 -103 0
103 -104 0
104 -105 0
105 -106 0
106 -107 0
107 -108 0
108 -109 0
109 -110 0
110 -111 0
111 -112 0
112 -113 0
113 -114 0
114 -115 0
115 -116 0
116 -117 0
117 -118 0
118 -119 0
119 -120 0
120 -121 0
121 -122 0
122 -123 0
123 -124 0
124 -125 0
125 -126 0
